\ Model TSP Problem
\ LP format - for model browsing. Use MPS format to capture full model detail.
Minimize
  16.1245154965971 X[0,1,0] + 16.1245154965971 X[0,1,1]
   + 16.1245154965971 X[0,1,2] + 16.1245154965971 X[0,1,3]
   + 16.1245154965971 X[0,1,4] + 15.13274595042156 X[0,2,0]
   + 15.13274595042156 X[0,2,1] + 15.13274595042156 X[0,2,2]
   + 15.13274595042156 X[0,2,3] + 15.13274595042156 X[0,2,4] + 19 X[0,3,0]
   + 19 X[0,3,1] + 19 X[0,3,2] + 19 X[0,3,3] + 19 X[0,3,4]
   + 18.11077027627483 X[0,4,0] + 18.11077027627483 X[0,4,1]
   + 18.11077027627483 X[0,4,2] + 18.11077027627483 X[0,4,3]
   + 18.11077027627483 X[0,4,4] + 20.09975124224178 X[0,5,0]
   + 20.09975124224178 X[0,5,1] + 20.09975124224178 X[0,5,2]
   + 20.09975124224178 X[0,5,3] + 20.09975124224178 X[0,5,4]
   + 1.414213562373095 X[0,6,0] + 1.414213562373095 X[0,6,1]
   + 1.414213562373095 X[0,6,2] + 1.414213562373095 X[0,6,3]
   + 1.414213562373095 X[0,6,4] + 16.1245154965971 X[1,0,0]
   + 16.1245154965971 X[1,0,1] + 16.1245154965971 X[1,0,2]
   + 16.1245154965971 X[1,0,3] + 16.1245154965971 X[1,0,4] + X[1,2,0]
   + X[1,2,1] + X[1,2,2] + X[1,2,3] + X[1,2,4] + 3.605551275463989 X[1,3,0]
   + 3.605551275463989 X[1,3,1] + 3.605551275463989 X[1,3,2]
   + 3.605551275463989 X[1,3,3] + 3.605551275463989 X[1,3,4]
   + 4.47213595499958 X[1,4,0] + 4.47213595499958 X[1,4,1]
   + 4.47213595499958 X[1,4,2] + 4.47213595499958 X[1,4,3]
   + 4.47213595499958 X[1,4,4] + 5.656854249492381 X[1,5,0]
   + 5.656854249492381 X[1,5,1] + 5.656854249492381 X[1,5,2]
   + 5.656854249492381 X[1,5,3] + 5.656854249492381 X[1,5,4]
   + 15.03329637837291 X[1,6,0] + 15.03329637837291 X[1,6,1]
   + 15.03329637837291 X[1,6,2] + 15.03329637837291 X[1,6,3]
   + 15.03329637837291 X[1,6,4] + 15.13274595042156 X[2,0,0]
   + 15.13274595042156 X[2,0,1] + 15.13274595042156 X[2,0,2]
   + 15.13274595042156 X[2,0,3] + 15.13274595042156 X[2,0,4] + X[2,1,0]
   + X[2,1,1] + X[2,1,2] + X[2,1,3] + X[2,1,4] + 4.47213595499958 X[2,3,0]
   + 4.47213595499958 X[2,3,1] + 4.47213595499958 X[2,3,2]
   + 4.47213595499958 X[2,3,3] + 4.47213595499958 X[2,3,4] + 5 X[2,4,0]
   + 5 X[2,4,1] + 5 X[2,4,2] + 5 X[2,4,3] + 5 X[2,4,4]
   + 6.403124237432849 X[2,5,0] + 6.403124237432849 X[2,5,1]
   + 6.403124237432849 X[2,5,2] + 6.403124237432849 X[2,5,3]
   + 6.403124237432849 X[2,5,4] + 14.0356688476182 X[2,6,0]
   + 14.0356688476182 X[2,6,1] + 14.0356688476182 X[2,6,2]
   + 14.0356688476182 X[2,6,3] + 14.0356688476182 X[2,6,4] + 19 X[3,0,0]
   + 19 X[3,0,1] + 19 X[3,0,2] + 19 X[3,0,3] + 19 X[3,0,4]
   + 3.605551275463989 X[3,1,0] + 3.605551275463989 X[3,1,1]
   + 3.605551275463989 X[3,1,2] + 3.605551275463989 X[3,1,3]
   + 3.605551275463989 X[3,1,4] + 4.47213595499958 X[3,2,0]
   + 4.47213595499958 X[3,2,1] + 4.47213595499958 X[3,2,2]
   + 4.47213595499958 X[3,2,3] + 4.47213595499958 X[3,2,4]
   + 2.23606797749979 X[3,4,0] + 2.23606797749979 X[3,4,1]
   + 2.23606797749979 X[3,4,2] + 2.23606797749979 X[3,4,3]
   + 2.23606797749979 X[3,4,4] + 2.23606797749979 X[3,5,0]
   + 2.23606797749979 X[3,5,1] + 2.23606797749979 X[3,5,2]
   + 2.23606797749979 X[3,5,3] + 2.23606797749979 X[3,5,4]
   + 18.02775637731995 X[3,6,0] + 18.02775637731995 X[3,6,1]
   + 18.02775637731995 X[3,6,2] + 18.02775637731995 X[3,6,3]
   + 18.02775637731995 X[3,6,4] + 18.11077027627483 X[4,0,0]
   + 18.11077027627483 X[4,0,1] + 18.11077027627483 X[4,0,2]
   + 18.11077027627483 X[4,0,3] + 18.11077027627483 X[4,0,4]
   + 4.47213595499958 X[4,1,0] + 4.47213595499958 X[4,1,1]
   + 4.47213595499958 X[4,1,2] + 4.47213595499958 X[4,1,3]
   + 4.47213595499958 X[4,1,4] + 5 X[4,2,0] + 5 X[4,2,1] + 5 X[4,2,2]
   + 5 X[4,2,3] + 5 X[4,2,4] + 2.23606797749979 X[4,3,0]
   + 2.23606797749979 X[4,3,1] + 2.23606797749979 X[4,3,2]
   + 2.23606797749979 X[4,3,3] + 2.23606797749979 X[4,3,4] + 2 X[4,5,0]
   + 2 X[4,5,1] + 2 X[4,5,2] + 2 X[4,5,3] + 2 X[4,5,4]
   + 17.26267650163207 X[4,6,0] + 17.26267650163207 X[4,6,1]
   + 17.26267650163207 X[4,6,2] + 17.26267650163207 X[4,6,3]
   + 17.26267650163207 X[4,6,4] + 20.09975124224178 X[5,0,0]
   + 20.09975124224178 X[5,0,1] + 20.09975124224178 X[5,0,2]
   + 20.09975124224178 X[5,0,3] + 20.09975124224178 X[5,0,4]
   + 5.656854249492381 X[5,1,0] + 5.656854249492381 X[5,1,1]
   + 5.656854249492381 X[5,1,2] + 5.656854249492381 X[5,1,3]
   + 5.656854249492381 X[5,1,4] + 6.403124237432849 X[5,2,0]
   + 6.403124237432849 X[5,2,1] + 6.403124237432849 X[5,2,2]
   + 6.403124237432849 X[5,2,3] + 6.403124237432849 X[5,2,4]
   + 2.23606797749979 X[5,3,0] + 2.23606797749979 X[5,3,1]
   + 2.23606797749979 X[5,3,2] + 2.23606797749979 X[5,3,3]
   + 2.23606797749979 X[5,3,4] + 2 X[5,4,0] + 2 X[5,4,1] + 2 X[5,4,2]
   + 2 X[5,4,3] + 2 X[5,4,4] + 19.23538406167134 X[5,6,0]
   + 19.23538406167134 X[5,6,1] + 19.23538406167134 X[5,6,2]
   + 19.23538406167134 X[5,6,3] + 19.23538406167134 X[5,6,4]
   + 1.414213562373095 X[6,0,0] + 1.414213562373095 X[6,0,1]
   + 1.414213562373095 X[6,0,2] + 1.414213562373095 X[6,0,3]
   + 1.414213562373095 X[6,0,4] + 15.03329637837291 X[6,1,0]
   + 15.03329637837291 X[6,1,1] + 15.03329637837291 X[6,1,2]
   + 15.03329637837291 X[6,1,3] + 15.03329637837291 X[6,1,4]
   + 14.0356688476182 X[6,2,0] + 14.0356688476182 X[6,2,1]
   + 14.0356688476182 X[6,2,2] + 14.0356688476182 X[6,2,3]
   + 14.0356688476182 X[6,2,4] + 18.02775637731995 X[6,3,0]
   + 18.02775637731995 X[6,3,1] + 18.02775637731995 X[6,3,2]
   + 18.02775637731995 X[6,3,3] + 18.02775637731995 X[6,3,4]
   + 17.26267650163207 X[6,4,0] + 17.26267650163207 X[6,4,1]
   + 17.26267650163207 X[6,4,2] + 17.26267650163207 X[6,4,3]
   + 17.26267650163207 X[6,4,4] + 19.23538406167134 X[6,5,0]
   + 19.23538406167134 X[6,5,1] + 19.23538406167134 X[6,5,2]
   + 19.23538406167134 X[6,5,3] + 19.23538406167134 X[6,5,4]
Subject To
 R0: T[0] >= 0
 R1: T[0] <= 1236
 R2: - 100000.0001 X[0,1,0] - T[0] + T[1] >= -99983.8755845034
 R3: - 100000.0001 X[0,1,1] - T[0] + T[1] >= -99983.8755845034
 R4: - 100000.0001 X[0,1,2] - T[0] + T[1] >= -99983.8755845034
 R5: - 100000.0001 X[0,1,3] - T[0] + T[1] >= -99983.8755845034
 R6: - 100000.0001 X[0,1,4] - T[0] + T[1] >= -99983.8755845034
 R7: - 100000.0001 X[0,2,0] - T[0] + T[2] >= -99984.86735404958
 R8: - 100000.0001 X[0,2,1] - T[0] + T[2] >= -99984.86735404958
 R9: - 100000.0001 X[0,2,2] - T[0] + T[2] >= -99984.86735404958
 R10: - 100000.0001 X[0,2,3] - T[0] + T[2] >= -99984.86735404958
 R11: - 100000.0001 X[0,2,4] - T[0] + T[2] >= -99984.86735404958
 R12: - 100000.0001 X[0,3,0] - T[0] + T[3] >= -99981.0001
 R13: - 100000.0001 X[0,3,1] - T[0] + T[3] >= -99981.0001
 R14: - 100000.0001 X[0,3,2] - T[0] + T[3] >= -99981.0001
 R15: - 100000.0001 X[0,3,3] - T[0] + T[3] >= -99981.0001
 R16: - 100000.0001 X[0,3,4] - T[0] + T[3] >= -99981.0001
 R17: - 100000.0001 X[0,4,0] - T[0] + T[4] >= -99981.88932972372
 R18: - 100000.0001 X[0,4,1] - T[0] + T[4] >= -99981.88932972372
 R19: - 100000.0001 X[0,4,2] - T[0] + T[4] >= -99981.88932972372
 R20: - 100000.0001 X[0,4,3] - T[0] + T[4] >= -99981.88932972372
 R21: - 100000.0001 X[0,4,4] - T[0] + T[4] >= -99981.88932972372
 R22: - 100000.0001 X[0,5,0] - T[0] + T[5] >= -99979.90034875776
 R23: - 100000.0001 X[0,5,1] - T[0] + T[5] >= -99979.90034875776
 R24: - 100000.0001 X[0,5,2] - T[0] + T[5] >= -99979.90034875776
 R25: - 100000.0001 X[0,5,3] - T[0] + T[5] >= -99979.90034875776
 R26: - 100000.0001 X[0,5,4] - T[0] + T[5] >= -99979.90034875776
 R27: - 100000.0001 X[0,6,0] - T[0] + T[6] >= -99998.58588643764
 R28: - 100000.0001 X[0,6,1] - T[0] + T[6] >= -99998.58588643764
 R29: - 100000.0001 X[0,6,2] - T[0] + T[6] >= -99998.58588643764
 R30: - 100000.0001 X[0,6,3] - T[0] + T[6] >= -99998.58588643764
 R31: - 100000.0001 X[0,6,4] - T[0] + T[6] >= -99998.58588643764
 R32: T[1] >= 65
 R33: T[1] <= 146
 R34: - 100000.0001 X[1,1,0] >= -99910.0001
 R35: - 100000.0001 X[1,1,1] >= -99910.0001
 R36: - 100000.0001 X[1,1,2] >= -99910.0001
 R37: - 100000.0001 X[1,1,3] >= -99910.0001
 R38: - 100000.0001 X[1,1,4] >= -99910.0001
 R39: - 100000.0001 X[1,2,0] - T[1] + T[2] >= -99909.0001
 R40: - 100000.0001 X[1,2,1] - T[1] + T[2] >= -99909.0001
 R41: - 100000.0001 X[1,2,2] - T[1] + T[2] >= -99909.0001
 R42: - 100000.0001 X[1,2,3] - T[1] + T[2] >= -99909.0001
 R43: - 100000.0001 X[1,2,4] - T[1] + T[2] >= -99909.0001
 R44: - 100000.0001 X[1,3,0] - T[1] + T[3] >= -99906.39454872454
 R45: - 100000.0001 X[1,3,1] - T[1] + T[3] >= -99906.39454872454
 R46: - 100000.0001 X[1,3,2] - T[1] + T[3] >= -99906.39454872454
 R47: - 100000.0001 X[1,3,3] - T[1] + T[3] >= -99906.39454872454
 R48: - 100000.0001 X[1,3,4] - T[1] + T[3] >= -99906.39454872454
 R49: - 100000.0001 X[1,4,0] - T[1] + T[4] >= -99905.527964045
 R50: - 100000.0001 X[1,4,1] - T[1] + T[4] >= -99905.527964045
 R51: - 100000.0001 X[1,4,2] - T[1] + T[4] >= -99905.527964045
 R52: - 100000.0001 X[1,4,3] - T[1] + T[4] >= -99905.527964045
 R53: - 100000.0001 X[1,4,4] - T[1] + T[4] >= -99905.527964045
 R54: - 100000.0001 X[1,5,0] - T[1] + T[5] >= -99904.34324575051
 R55: - 100000.0001 X[1,5,1] - T[1] + T[5] >= -99904.34324575051
 R56: - 100000.0001 X[1,5,2] - T[1] + T[5] >= -99904.34324575051
 R57: - 100000.0001 X[1,5,3] - T[1] + T[5] >= -99904.34324575051
 R58: - 100000.0001 X[1,5,4] - T[1] + T[5] >= -99904.34324575051
 R59: - 100000.0001 X[1,6,0] - T[1] + T[6] >= -99894.96680362163
 R60: - 100000.0001 X[1,6,1] - T[1] + T[6] >= -99894.96680362163
 R61: - 100000.0001 X[1,6,2] - T[1] + T[6] >= -99894.96680362163
 R62: - 100000.0001 X[1,6,3] - T[1] + T[6] >= -99894.96680362163
 R63: - 100000.0001 X[1,6,4] - T[1] + T[6] >= -99894.96680362163
 R64: T[2] >= 15
 R65: T[2] <= 67
 R66: - 100000.0001 X[2,1,0] + T[1] - T[2] >= -99909.0001
 R67: - 100000.0001 X[2,1,1] + T[1] - T[2] >= -99909.0001
 R68: - 100000.0001 X[2,1,2] + T[1] - T[2] >= -99909.0001
 R69: - 100000.0001 X[2,1,3] + T[1] - T[2] >= -99909.0001
 R70: - 100000.0001 X[2,1,4] + T[1] - T[2] >= -99909.0001
 R71: - 100000.0001 X[2,2,0] >= -99910.0001
 R72: - 100000.0001 X[2,2,1] >= -99910.0001
 R73: - 100000.0001 X[2,2,2] >= -99910.0001
 R74: - 100000.0001 X[2,2,3] >= -99910.0001
 R75: - 100000.0001 X[2,2,4] >= -99910.0001
 R76: - 100000.0001 X[2,3,0] - T[2] + T[3] >= -99905.527964045
 R77: - 100000.0001 X[2,3,1] - T[2] + T[3] >= -99905.527964045
 R78: - 100000.0001 X[2,3,2] - T[2] + T[3] >= -99905.527964045
 R79: - 100000.0001 X[2,3,3] - T[2] + T[3] >= -99905.527964045
 R80: - 100000.0001 X[2,3,4] - T[2] + T[3] >= -99905.527964045
 R81: - 100000.0001 X[2,4,0] - T[2] + T[4] >= -99905.0001
 R82: - 100000.0001 X[2,4,1] - T[2] + T[4] >= -99905.0001
 R83: - 100000.0001 X[2,4,2] - T[2] + T[4] >= -99905.0001
 R84: - 100000.0001 X[2,4,3] - T[2] + T[4] >= -99905.0001
 R85: - 100000.0001 X[2,4,4] - T[2] + T[4] >= -99905.0001
 R86: - 100000.0001 X[2,5,0] - T[2] + T[5] >= -99903.59697576257
 R87: - 100000.0001 X[2,5,1] - T[2] + T[5] >= -99903.59697576257
 R88: - 100000.0001 X[2,5,2] - T[2] + T[5] >= -99903.59697576257
 R89: - 100000.0001 X[2,5,3] - T[2] + T[5] >= -99903.59697576257
 R90: - 100000.0001 X[2,5,4] - T[2] + T[5] >= -99903.59697576257
 R91: - 100000.0001 X[2,6,0] - T[2] + T[6] >= -99895.96443115239
 R92: - 100000.0001 X[2,6,1] - T[2] + T[6] >= -99895.96443115239
 R93: - 100000.0001 X[2,6,2] - T[2] + T[6] >= -99895.96443115239
 R94: - 100000.0001 X[2,6,3] - T[2] + T[6] >= -99895.96443115239
 R95: - 100000.0001 X[2,6,4] - T[2] + T[6] >= -99895.96443115239
 R96: T[3] >= 621
 R97: T[3] <= 702
 R98: - 100000.0001 X[3,1,0] + T[1] - T[3] >= -99906.39454872454
 R99: - 100000.0001 X[3,1,1] + T[1] - T[3] >= -99906.39454872454
 R100: - 100000.0001 X[3,1,2] + T[1] - T[3] >= -99906.39454872454
 R101: - 100000.0001 X[3,1,3] + T[1] - T[3] >= -99906.39454872454
 R102: - 100000.0001 X[3,1,4] + T[1] - T[3] >= -99906.39454872454
 R103: - 100000.0001 X[3,2,0] + T[2] - T[3] >= -99905.527964045
 R104: - 100000.0001 X[3,2,1] + T[2] - T[3] >= -99905.527964045
 R105: - 100000.0001 X[3,2,2] + T[2] - T[3] >= -99905.527964045
 R106: - 100000.0001 X[3,2,3] + T[2] - T[3] >= -99905.527964045
 R107: - 100000.0001 X[3,2,4] + T[2] - T[3] >= -99905.527964045
 R108: - 100000.0001 X[3,3,0] >= -99910.0001
 R109: - 100000.0001 X[3,3,1] >= -99910.0001
 R110: - 100000.0001 X[3,3,2] >= -99910.0001
 R111: - 100000.0001 X[3,3,3] >= -99910.0001
 R112: - 100000.0001 X[3,3,4] >= -99910.0001
 R113: - 100000.0001 X[3,4,0] - T[3] + T[4] >= -99907.7640320225
 R114: - 100000.0001 X[3,4,1] - T[3] + T[4] >= -99907.7640320225
 R115: - 100000.0001 X[3,4,2] - T[3] + T[4] >= -99907.7640320225
 R116: - 100000.0001 X[3,4,3] - T[3] + T[4] >= -99907.7640320225
 R117: - 100000.0001 X[3,4,4] - T[3] + T[4] >= -99907.7640320225
 R118: - 100000.0001 X[3,5,0] - T[3] + T[5] >= -99907.7640320225
 R119: - 100000.0001 X[3,5,1] - T[3] + T[5] >= -99907.7640320225
 R120: - 100000.0001 X[3,5,2] - T[3] + T[5] >= -99907.7640320225
 R121: - 100000.0001 X[3,5,3] - T[3] + T[5] >= -99907.7640320225
 R122: - 100000.0001 X[3,5,4] - T[3] + T[5] >= -99907.7640320225
 R123: - 100000.0001 X[3,6,0] - T[3] + T[6] >= -99891.97234362268
 R124: - 100000.0001 X[3,6,1] - T[3] + T[6] >= -99891.97234362268
 R125: - 100000.0001 X[3,6,2] - T[3] + T[6] >= -99891.97234362268
 R126: - 100000.0001 X[3,6,3] - T[3] + T[6] >= -99891.97234362268
 R127: - 100000.0001 X[3,6,4] - T[3] + T[6] >= -99891.97234362268
 R128: T[4] >= 255
 R129: T[4] <= 324
 R130: - 100000.0001 X[4,1,0] + T[1] - T[4] >= -99905.527964045
 R131: - 100000.0001 X[4,1,1] + T[1] - T[4] >= -99905.527964045
 R132: - 100000.0001 X[4,1,2] + T[1] - T[4] >= -99905.527964045
 R133: - 100000.0001 X[4,1,3] + T[1] - T[4] >= -99905.527964045
 R134: - 100000.0001 X[4,1,4] + T[1] - T[4] >= -99905.527964045
 R135: - 100000.0001 X[4,2,0] + T[2] - T[4] >= -99905.0001
 R136: - 100000.0001 X[4,2,1] + T[2] - T[4] >= -99905.0001
 R137: - 100000.0001 X[4,2,2] + T[2] - T[4] >= -99905.0001
 R138: - 100000.0001 X[4,2,3] + T[2] - T[4] >= -99905.0001
 R139: - 100000.0001 X[4,2,4] + T[2] - T[4] >= -99905.0001
 R140: - 100000.0001 X[4,3,0] + T[3] - T[4] >= -99907.7640320225
 R141: - 100000.0001 X[4,3,1] + T[3] - T[4] >= -99907.7640320225
 R142: - 100000.0001 X[4,3,2] + T[3] - T[4] >= -99907.7640320225
 R143: - 100000.0001 X[4,3,3] + T[3] - T[4] >= -99907.7640320225
 R144: - 100000.0001 X[4,3,4] + T[3] - T[4] >= -99907.7640320225
 R145: - 100000.0001 X[4,4,0] >= -99910.0001
 R146: - 100000.0001 X[4,4,1] >= -99910.0001
 R147: - 100000.0001 X[4,4,2] >= -99910.0001
 R148: - 100000.0001 X[4,4,3] >= -99910.0001
 R149: - 100000.0001 X[4,4,4] >= -99910.0001
 R150: - 100000.0001 X[4,5,0] - T[4] + T[5] >= -99908.0001
 R151: - 100000.0001 X[4,5,1] - T[4] + T[5] >= -99908.0001
 R152: - 100000.0001 X[4,5,2] - T[4] + T[5] >= -99908.0001
 R153: - 100000.0001 X[4,5,3] - T[4] + T[5] >= -99908.0001
 R154: - 100000.0001 X[4,5,4] - T[4] + T[5] >= -99908.0001
 R155: - 100000.0001 X[4,6,0] - T[4] + T[6] >= -99892.73742349837
 R156: - 100000.0001 X[4,6,1] - T[4] + T[6] >= -99892.73742349837
 R157: - 100000.0001 X[4,6,2] - T[4] + T[6] >= -99892.73742349837
 R158: - 100000.0001 X[4,6,3] - T[4] + T[6] >= -99892.73742349837
 R159: - 100000.0001 X[4,6,4] - T[4] + T[6] >= -99892.73742349837
 R160: T[5] >= 534
 R161: T[5] <= 605
 R162: - 100000.0001 X[5,1,0] + T[1] - T[5] >= -99904.34324575051
 R163: - 100000.0001 X[5,1,1] + T[1] - T[5] >= -99904.34324575051
 R164: - 100000.0001 X[5,1,2] + T[1] - T[5] >= -99904.34324575051
 R165: - 100000.0001 X[5,1,3] + T[1] - T[5] >= -99904.34324575051
 R166: - 100000.0001 X[5,1,4] + T[1] - T[5] >= -99904.34324575051
 R167: - 100000.0001 X[5,2,0] + T[2] - T[5] >= -99903.59697576257
 R168: - 100000.0001 X[5,2,1] + T[2] - T[5] >= -99903.59697576257
 R169: - 100000.0001 X[5,2,2] + T[2] - T[5] >= -99903.59697576257
 R170: - 100000.0001 X[5,2,3] + T[2] - T[5] >= -99903.59697576257
 R171: - 100000.0001 X[5,2,4] + T[2] - T[5] >= -99903.59697576257
 R172: - 100000.0001 X[5,3,0] + T[3] - T[5] >= -99907.7640320225
 R173: - 100000.0001 X[5,3,1] + T[3] - T[5] >= -99907.7640320225
 R174: - 100000.0001 X[5,3,2] + T[3] - T[5] >= -99907.7640320225
 R175: - 100000.0001 X[5,3,3] + T[3] - T[5] >= -99907.7640320225
 R176: - 100000.0001 X[5,3,4] + T[3] - T[5] >= -99907.7640320225
 R177: - 100000.0001 X[5,4,0] + T[4] - T[5] >= -99908.0001
 R178: - 100000.0001 X[5,4,1] + T[4] - T[5] >= -99908.0001
 R179: - 100000.0001 X[5,4,2] + T[4] - T[5] >= -99908.0001
 R180: - 100000.0001 X[5,4,3] + T[4] - T[5] >= -99908.0001
 R181: - 100000.0001 X[5,4,4] + T[4] - T[5] >= -99908.0001
 R182: - 100000.0001 X[5,5,0] >= -99910.0001
 R183: - 100000.0001 X[5,5,1] >= -99910.0001
 R184: - 100000.0001 X[5,5,2] >= -99910.0001
 R185: - 100000.0001 X[5,5,3] >= -99910.0001
 R186: - 100000.0001 X[5,5,4] >= -99910.0001
 R187: - 100000.0001 X[5,6,0] - T[5] + T[6] >= -99890.76471593833
 R188: - 100000.0001 X[5,6,1] - T[5] + T[6] >= -99890.76471593833
 R189: - 100000.0001 X[5,6,2] - T[5] + T[6] >= -99890.76471593833
 R190: - 100000.0001 X[5,6,3] - T[5] + T[6] >= -99890.76471593833
 R191: - 100000.0001 X[5,6,4] - T[5] + T[6] >= -99890.76471593833
 R192: T[6] >= 448
 R193: T[6] <= 505
 R194: - 100000.0001 X[6,1,0] + T[1] - T[6] >= -99894.96680362163
 R195: - 100000.0001 X[6,1,1] + T[1] - T[6] >= -99894.96680362163
 R196: - 100000.0001 X[6,1,2] + T[1] - T[6] >= -99894.96680362163
 R197: - 100000.0001 X[6,1,3] + T[1] - T[6] >= -99894.96680362163
 R198: - 100000.0001 X[6,1,4] + T[1] - T[6] >= -99894.96680362163
 R199: - 100000.0001 X[6,2,0] + T[2] - T[6] >= -99895.96443115239
 R200: - 100000.0001 X[6,2,1] + T[2] - T[6] >= -99895.96443115239
 R201: - 100000.0001 X[6,2,2] + T[2] - T[6] >= -99895.96443115239
 R202: - 100000.0001 X[6,2,3] + T[2] - T[6] >= -99895.96443115239
 R203: - 100000.0001 X[6,2,4] + T[2] - T[6] >= -99895.96443115239
 R204: - 100000.0001 X[6,3,0] + T[3] - T[6] >= -99891.97234362268
 R205: - 100000.0001 X[6,3,1] + T[3] - T[6] >= -99891.97234362268
 R206: - 100000.0001 X[6,3,2] + T[3] - T[6] >= -99891.97234362268
 R207: - 100000.0001 X[6,3,3] + T[3] - T[6] >= -99891.97234362268
 R208: - 100000.0001 X[6,3,4] + T[3] - T[6] >= -99891.97234362268
 R209: - 100000.0001 X[6,4,0] + T[4] - T[6] >= -99892.73742349837
 R210: - 100000.0001 X[6,4,1] + T[4] - T[6] >= -99892.73742349837
 R211: - 100000.0001 X[6,4,2] + T[4] - T[6] >= -99892.73742349837
 R212: - 100000.0001 X[6,4,3] + T[4] - T[6] >= -99892.73742349837
 R213: - 100000.0001 X[6,4,4] + T[4] - T[6] >= -99892.73742349837
 R214: - 100000.0001 X[6,5,0] + T[5] - T[6] >= -99890.76471593833
 R215: - 100000.0001 X[6,5,1] + T[5] - T[6] >= -99890.76471593833
 R216: - 100000.0001 X[6,5,2] + T[5] - T[6] >= -99890.76471593833
 R217: - 100000.0001 X[6,5,3] + T[5] - T[6] >= -99890.76471593833
 R218: - 100000.0001 X[6,5,4] + T[5] - T[6] >= -99890.76471593833
 R219: - 100000.0001 X[6,6,0] >= -99910.0001
 R220: - 100000.0001 X[6,6,1] >= -99910.0001
 R221: - 100000.0001 X[6,6,2] >= -99910.0001
 R222: - 100000.0001 X[6,6,3] >= -99910.0001
 R223: - 100000.0001 X[6,6,4] >= -99910.0001
 R224: Z[1,0] + Z[1,1] + Z[1,2] + Z[1,3] + Z[1,4] = 1
 R225: Z[2,0] + Z[2,1] + Z[2,2] + Z[2,3] + Z[2,4] = 1
 R226: Z[3,0] + Z[3,1] + Z[3,2] + Z[3,3] + Z[3,4] = 1
 R227: Z[4,0] + Z[4,1] + Z[4,2] + Z[4,3] + Z[4,4] = 1
 R228: Z[5,0] + Z[5,1] + Z[5,2] + Z[5,3] + Z[5,4] = 1
 R229: Z[6,0] + Z[6,1] + Z[6,2] + Z[6,3] + Z[6,4] = 1
 R230: Z[0,0] + Z[0,1] + Z[0,2] + Z[0,3] + Z[0,4] = 5
 R231: 20 Z[1,0] + 20 Z[2,0] + 20 Z[3,0] + 20 Z[4,0] + 10 Z[5,0]
   + 30 Z[6,0] <= 30
 R232: 20 Z[1,1] + 20 Z[2,1] + 20 Z[3,1] + 20 Z[4,1] + 10 Z[5,1]
   + 30 Z[6,1] <= 30
 R233: 20 Z[1,2] + 20 Z[2,2] + 20 Z[3,2] + 20 Z[4,2] + 10 Z[5,2]
   + 30 Z[6,2] <= 30
 R234: 20 Z[1,3] + 20 Z[2,3] + 20 Z[3,3] + 20 Z[4,3] + 10 Z[5,3]
   + 30 Z[6,3] <= 30
 R235: 20 Z[1,4] + 20 Z[2,4] + 20 Z[3,4] + 20 Z[4,4] + 10 Z[5,4]
   + 30 Z[6,4] <= 30
 R236: - X[0,1,0] - X[0,2,0] - X[0,3,0] - X[0,4,0] - X[0,5,0] - X[0,6,0]
   + X[1,0,0] + X[2,0,0] + X[3,0,0] + X[4,0,0] + X[5,0,0] + X[6,0,0] = 0
 R237: - X[0,1,1] - X[0,2,1] - X[0,3,1] - X[0,4,1] - X[0,5,1] - X[0,6,1]
   + X[1,0,1] + X[2,0,1] + X[3,0,1] + X[4,0,1] + X[5,0,1] + X[6,0,1] = 0
 R238: - X[0,1,2] - X[0,2,2] - X[0,3,2] - X[0,4,2] - X[0,5,2] - X[0,6,2]
   + X[1,0,2] + X[2,0,2] + X[3,0,2] + X[4,0,2] + X[5,0,2] + X[6,0,2] = 0
 R239: - X[0,1,3] - X[0,2,3] - X[0,3,3] - X[0,4,3] - X[0,5,3] - X[0,6,3]
   + X[1,0,3] + X[2,0,3] + X[3,0,3] + X[4,0,3] + X[5,0,3] + X[6,0,3] = 0
 R240: - X[0,1,4] - X[0,2,4] - X[0,3,4] - X[0,4,4] - X[0,5,4] - X[0,6,4]
   + X[1,0,4] + X[2,0,4] + X[3,0,4] + X[4,0,4] + X[5,0,4] + X[6,0,4] = 0
 R241: X[0,1,0] - X[1,0,0] - X[1,2,0] - X[1,3,0] - X[1,4,0] - X[1,5,0]
   - X[1,6,0] + X[2,1,0] + X[3,1,0] + X[4,1,0] + X[5,1,0] + X[6,1,0] = 0
 R242: X[0,1,1] - X[1,0,1] - X[1,2,1] - X[1,3,1] - X[1,4,1] - X[1,5,1]
   - X[1,6,1] + X[2,1,1] + X[3,1,1] + X[4,1,1] + X[5,1,1] + X[6,1,1] = 0
 R243: X[0,1,2] - X[1,0,2] - X[1,2,2] - X[1,3,2] - X[1,4,2] - X[1,5,2]
   - X[1,6,2] + X[2,1,2] + X[3,1,2] + X[4,1,2] + X[5,1,2] + X[6,1,2] = 0
 R244: X[0,1,3] - X[1,0,3] - X[1,2,3] - X[1,3,3] - X[1,4,3] - X[1,5,3]
   - X[1,6,3] + X[2,1,3] + X[3,1,3] + X[4,1,3] + X[5,1,3] + X[6,1,3] = 0
 R245: X[0,1,4] - X[1,0,4] - X[1,2,4] - X[1,3,4] - X[1,4,4] - X[1,5,4]
   - X[1,6,4] + X[2,1,4] + X[3,1,4] + X[4,1,4] + X[5,1,4] + X[6,1,4] = 0
 R246: X[0,2,0] + X[1,2,0] - X[2,0,0] - X[2,1,0] - X[2,3,0] - X[2,4,0]
   - X[2,5,0] - X[2,6,0] + X[3,2,0] + X[4,2,0] + X[5,2,0] + X[6,2,0] = 0
 R247: X[0,2,1] + X[1,2,1] - X[2,0,1] - X[2,1,1] - X[2,3,1] - X[2,4,1]
   - X[2,5,1] - X[2,6,1] + X[3,2,1] + X[4,2,1] + X[5,2,1] + X[6,2,1] = 0
 R248: X[0,2,2] + X[1,2,2] - X[2,0,2] - X[2,1,2] - X[2,3,2] - X[2,4,2]
   - X[2,5,2] - X[2,6,2] + X[3,2,2] + X[4,2,2] + X[5,2,2] + X[6,2,2] = 0
 R249: X[0,2,3] + X[1,2,3] - X[2,0,3] - X[2,1,3] - X[2,3,3] - X[2,4,3]
   - X[2,5,3] - X[2,6,3] + X[3,2,3] + X[4,2,3] + X[5,2,3] + X[6,2,3] = 0
 R250: X[0,2,4] + X[1,2,4] - X[2,0,4] - X[2,1,4] - X[2,3,4] - X[2,4,4]
   - X[2,5,4] - X[2,6,4] + X[3,2,4] + X[4,2,4] + X[5,2,4] + X[6,2,4] = 0
 R251: X[0,3,0] + X[1,3,0] + X[2,3,0] - X[3,0,0] - X[3,1,0] - X[3,2,0]
   - X[3,4,0] - X[3,5,0] - X[3,6,0] + X[4,3,0] + X[5,3,0] + X[6,3,0] = 0
 R252: X[0,3,1] + X[1,3,1] + X[2,3,1] - X[3,0,1] - X[3,1,1] - X[3,2,1]
   - X[3,4,1] - X[3,5,1] - X[3,6,1] + X[4,3,1] + X[5,3,1] + X[6,3,1] = 0
 R253: X[0,3,2] + X[1,3,2] + X[2,3,2] - X[3,0,2] - X[3,1,2] - X[3,2,2]
   - X[3,4,2] - X[3,5,2] - X[3,6,2] + X[4,3,2] + X[5,3,2] + X[6,3,2] = 0
 R254: X[0,3,3] + X[1,3,3] + X[2,3,3] - X[3,0,3] - X[3,1,3] - X[3,2,3]
   - X[3,4,3] - X[3,5,3] - X[3,6,3] + X[4,3,3] + X[5,3,3] + X[6,3,3] = 0
 R255: X[0,3,4] + X[1,3,4] + X[2,3,4] - X[3,0,4] - X[3,1,4] - X[3,2,4]
   - X[3,4,4] - X[3,5,4] - X[3,6,4] + X[4,3,4] + X[5,3,4] + X[6,3,4] = 0
 R256: X[0,4,0] + X[1,4,0] + X[2,4,0] + X[3,4,0] - X[4,0,0] - X[4,1,0]
   - X[4,2,0] - X[4,3,0] - X[4,5,0] - X[4,6,0] + X[5,4,0] + X[6,4,0] = 0
 R257: X[0,4,1] + X[1,4,1] + X[2,4,1] + X[3,4,1] - X[4,0,1] - X[4,1,1]
   - X[4,2,1] - X[4,3,1] - X[4,5,1] - X[4,6,1] + X[5,4,1] + X[6,4,1] = 0
 R258: X[0,4,2] + X[1,4,2] + X[2,4,2] + X[3,4,2] - X[4,0,2] - X[4,1,2]
   - X[4,2,2] - X[4,3,2] - X[4,5,2] - X[4,6,2] + X[5,4,2] + X[6,4,2] = 0
 R259: X[0,4,3] + X[1,4,3] + X[2,4,3] + X[3,4,3] - X[4,0,3] - X[4,1,3]
   - X[4,2,3] - X[4,3,3] - X[4,5,3] - X[4,6,3] + X[5,4,3] + X[6,4,3] = 0
 R260: X[0,4,4] + X[1,4,4] + X[2,4,4] + X[3,4,4] - X[4,0,4] - X[4,1,4]
   - X[4,2,4] - X[4,3,4] - X[4,5,4] - X[4,6,4] + X[5,4,4] + X[6,4,4] = 0
 R261: X[0,5,0] + X[1,5,0] + X[2,5,0] + X[3,5,0] + X[4,5,0] - X[5,0,0]
   - X[5,1,0] - X[5,2,0] - X[5,3,0] - X[5,4,0] - X[5,6,0] + X[6,5,0] = 0
 R262: X[0,5,1] + X[1,5,1] + X[2,5,1] + X[3,5,1] + X[4,5,1] - X[5,0,1]
   - X[5,1,1] - X[5,2,1] - X[5,3,1] - X[5,4,1] - X[5,6,1] + X[6,5,1] = 0
 R263: X[0,5,2] + X[1,5,2] + X[2,5,2] + X[3,5,2] + X[4,5,2] - X[5,0,2]
   - X[5,1,2] - X[5,2,2] - X[5,3,2] - X[5,4,2] - X[5,6,2] + X[6,5,2] = 0
 R264: X[0,5,3] + X[1,5,3] + X[2,5,3] + X[3,5,3] + X[4,5,3] - X[5,0,3]
   - X[5,1,3] - X[5,2,3] - X[5,3,3] - X[5,4,3] - X[5,6,3] + X[6,5,3] = 0
 R265: X[0,5,4] + X[1,5,4] + X[2,5,4] + X[3,5,4] + X[4,5,4] - X[5,0,4]
   - X[5,1,4] - X[5,2,4] - X[5,3,4] - X[5,4,4] - X[5,6,4] + X[6,5,4] = 0
 R266: X[0,6,0] + X[1,6,0] + X[2,6,0] + X[3,6,0] + X[4,6,0] + X[5,6,0]
   - X[6,0,0] - X[6,1,0] - X[6,2,0] - X[6,3,0] - X[6,4,0] - X[6,5,0] = 0
 R267: X[0,6,1] + X[1,6,1] + X[2,6,1] + X[3,6,1] + X[4,6,1] + X[5,6,1]
   - X[6,0,1] - X[6,1,1] - X[6,2,1] - X[6,3,1] - X[6,4,1] - X[6,5,1] = 0
 R268: X[0,6,2] + X[1,6,2] + X[2,6,2] + X[3,6,2] + X[4,6,2] + X[5,6,2]
   - X[6,0,2] - X[6,1,2] - X[6,2,2] - X[6,3,2] - X[6,4,2] - X[6,5,2] = 0
 R269: X[0,6,3] + X[1,6,3] + X[2,6,3] + X[3,6,3] + X[4,6,3] + X[5,6,3]
   - X[6,0,3] - X[6,1,3] - X[6,2,3] - X[6,3,3] - X[6,4,3] - X[6,5,3] = 0
 R270: X[0,6,4] + X[1,6,4] + X[2,6,4] + X[3,6,4] + X[4,6,4] + X[5,6,4]
   - X[6,0,4] - X[6,1,4] - X[6,2,4] - X[6,3,4] - X[6,4,4] - X[6,5,4] = 0
 R271: X[0,0,0] + X[1,0,0] + X[2,0,0] + X[3,0,0] + X[4,0,0] + X[5,0,0]
   + X[6,0,0] - Z[0,0] = 0
 R272: X[0,0,1] + X[1,0,1] + X[2,0,1] + X[3,0,1] + X[4,0,1] + X[5,0,1]
   + X[6,0,1] - Z[0,1] = 0
 R273: X[0,0,2] + X[1,0,2] + X[2,0,2] + X[3,0,2] + X[4,0,2] + X[5,0,2]
   + X[6,0,2] - Z[0,2] = 0
 R274: X[0,0,3] + X[1,0,3] + X[2,0,3] + X[3,0,3] + X[4,0,3] + X[5,0,3]
   + X[6,0,3] - Z[0,3] = 0
 R275: X[0,0,4] + X[1,0,4] + X[2,0,4] + X[3,0,4] + X[4,0,4] + X[5,0,4]
   + X[6,0,4] - Z[0,4] = 0
 R276: X[0,1,0] + X[1,1,0] + X[2,1,0] + X[3,1,0] + X[4,1,0] + X[5,1,0]
   + X[6,1,0] - Z[1,0] = 0
 R277: X[0,1,1] + X[1,1,1] + X[2,1,1] + X[3,1,1] + X[4,1,1] + X[5,1,1]
   + X[6,1,1] - Z[1,1] = 0
 R278: X[0,1,2] + X[1,1,2] + X[2,1,2] + X[3,1,2] + X[4,1,2] + X[5,1,2]
   + X[6,1,2] - Z[1,2] = 0
 R279: X[0,1,3] + X[1,1,3] + X[2,1,3] + X[3,1,3] + X[4,1,3] + X[5,1,3]
   + X[6,1,3] - Z[1,3] = 0
 R280: X[0,1,4] + X[1,1,4] + X[2,1,4] + X[3,1,4] + X[4,1,4] + X[5,1,4]
   + X[6,1,4] - Z[1,4] = 0
 R281: X[0,2,0] + X[1,2,0] + X[2,2,0] + X[3,2,0] + X[4,2,0] + X[5,2,0]
   + X[6,2,0] - Z[2,0] = 0
 R282: X[0,2,1] + X[1,2,1] + X[2,2,1] + X[3,2,1] + X[4,2,1] + X[5,2,1]
   + X[6,2,1] - Z[2,1] = 0
 R283: X[0,2,2] + X[1,2,2] + X[2,2,2] + X[3,2,2] + X[4,2,2] + X[5,2,2]
   + X[6,2,2] - Z[2,2] = 0
 R284: X[0,2,3] + X[1,2,3] + X[2,2,3] + X[3,2,3] + X[4,2,3] + X[5,2,3]
   + X[6,2,3] - Z[2,3] = 0
 R285: X[0,2,4] + X[1,2,4] + X[2,2,4] + X[3,2,4] + X[4,2,4] + X[5,2,4]
   + X[6,2,4] - Z[2,4] = 0
 R286: X[0,3,0] + X[1,3,0] + X[2,3,0] + X[3,3,0] + X[4,3,0] + X[5,3,0]
   + X[6,3,0] - Z[3,0] = 0
 R287: X[0,3,1] + X[1,3,1] + X[2,3,1] + X[3,3,1] + X[4,3,1] + X[5,3,1]
   + X[6,3,1] - Z[3,1] = 0
 R288: X[0,3,2] + X[1,3,2] + X[2,3,2] + X[3,3,2] + X[4,3,2] + X[5,3,2]
   + X[6,3,2] - Z[3,2] = 0
 R289: X[0,3,3] + X[1,3,3] + X[2,3,3] + X[3,3,3] + X[4,3,3] + X[5,3,3]
   + X[6,3,3] - Z[3,3] = 0
 R290: X[0,3,4] + X[1,3,4] + X[2,3,4] + X[3,3,4] + X[4,3,4] + X[5,3,4]
   + X[6,3,4] - Z[3,4] = 0
 R291: X[0,4,0] + X[1,4,0] + X[2,4,0] + X[3,4,0] + X[4,4,0] + X[5,4,0]
   + X[6,4,0] - Z[4,0] = 0
 R292: X[0,4,1] + X[1,4,1] + X[2,4,1] + X[3,4,1] + X[4,4,1] + X[5,4,1]
   + X[6,4,1] - Z[4,1] = 0
 R293: X[0,4,2] + X[1,4,2] + X[2,4,2] + X[3,4,2] + X[4,4,2] + X[5,4,2]
   + X[6,4,2] - Z[4,2] = 0
 R294: X[0,4,3] + X[1,4,3] + X[2,4,3] + X[3,4,3] + X[4,4,3] + X[5,4,3]
   + X[6,4,3] - Z[4,3] = 0
 R295: X[0,4,4] + X[1,4,4] + X[2,4,4] + X[3,4,4] + X[4,4,4] + X[5,4,4]
   + X[6,4,4] - Z[4,4] = 0
 R296: X[0,5,0] + X[1,5,0] + X[2,5,0] + X[3,5,0] + X[4,5,0] + X[5,5,0]
   + X[6,5,0] - Z[5,0] = 0
 R297: X[0,5,1] + X[1,5,1] + X[2,5,1] + X[3,5,1] + X[4,5,1] + X[5,5,1]
   + X[6,5,1] - Z[5,1] = 0
 R298: X[0,5,2] + X[1,5,2] + X[2,5,2] + X[3,5,2] + X[4,5,2] + X[5,5,2]
   + X[6,5,2] - Z[5,2] = 0
 R299: X[0,5,3] + X[1,5,3] + X[2,5,3] + X[3,5,3] + X[4,5,3] + X[5,5,3]
   + X[6,5,3] - Z[5,3] = 0
 R300: X[0,5,4] + X[1,5,4] + X[2,5,4] + X[3,5,4] + X[4,5,4] + X[5,5,4]
   + X[6,5,4] - Z[5,4] = 0
 R301: X[0,6,0] + X[1,6,0] + X[2,6,0] + X[3,6,0] + X[4,6,0] + X[5,6,0]
   + X[6,6,0] - Z[6,0] = 0
 R302: X[0,6,1] + X[1,6,1] + X[2,6,1] + X[3,6,1] + X[4,6,1] + X[5,6,1]
   + X[6,6,1] - Z[6,1] = 0
 R303: X[0,6,2] + X[1,6,2] + X[2,6,2] + X[3,6,2] + X[4,6,2] + X[5,6,2]
   + X[6,6,2] - Z[6,2] = 0
 R304: X[0,6,3] + X[1,6,3] + X[2,6,3] + X[3,6,3] + X[4,6,3] + X[5,6,3]
   + X[6,6,3] - Z[6,3] = 0
 R305: X[0,6,4] + X[1,6,4] + X[2,6,4] + X[3,6,4] + X[4,6,4] + X[5,6,4]
   + X[6,6,4] - Z[6,4] = 0
Bounds
Binaries
 X[0,0,0] X[0,0,1] X[0,0,2] X[0,0,3] X[0,0,4] X[0,1,0] X[0,1,1] X[0,1,2]
 X[0,1,3] X[0,1,4] X[0,2,0] X[0,2,1] X[0,2,2] X[0,2,3] X[0,2,4] X[0,3,0]
 X[0,3,1] X[0,3,2] X[0,3,3] X[0,3,4] X[0,4,0] X[0,4,1] X[0,4,2] X[0,4,3]
 X[0,4,4] X[0,5,0] X[0,5,1] X[0,5,2] X[0,5,3] X[0,5,4] X[0,6,0] X[0,6,1]
 X[0,6,2] X[0,6,3] X[0,6,4] X[1,0,0] X[1,0,1] X[1,0,2] X[1,0,3] X[1,0,4]
 X[1,1,0] X[1,1,1] X[1,1,2] X[1,1,3] X[1,1,4] X[1,2,0] X[1,2,1] X[1,2,2]
 X[1,2,3] X[1,2,4] X[1,3,0] X[1,3,1] X[1,3,2] X[1,3,3] X[1,3,4] X[1,4,0]
 X[1,4,1] X[1,4,2] X[1,4,3] X[1,4,4] X[1,5,0] X[1,5,1] X[1,5,2] X[1,5,3]
 X[1,5,4] X[1,6,0] X[1,6,1] X[1,6,2] X[1,6,3] X[1,6,4] X[2,0,0] X[2,0,1]
 X[2,0,2] X[2,0,3] X[2,0,4] X[2,1,0] X[2,1,1] X[2,1,2] X[2,1,3] X[2,1,4]
 X[2,2,0] X[2,2,1] X[2,2,2] X[2,2,3] X[2,2,4] X[2,3,0] X[2,3,1] X[2,3,2]
 X[2,3,3] X[2,3,4] X[2,4,0] X[2,4,1] X[2,4,2] X[2,4,3] X[2,4,4] X[2,5,0]
 X[2,5,1] X[2,5,2] X[2,5,3] X[2,5,4] X[2,6,0] X[2,6,1] X[2,6,2] X[2,6,3]
 X[2,6,4] X[3,0,0] X[3,0,1] X[3,0,2] X[3,0,3] X[3,0,4] X[3,1,0] X[3,1,1]
 X[3,1,2] X[3,1,3] X[3,1,4] X[3,2,0] X[3,2,1] X[3,2,2] X[3,2,3] X[3,2,4]
 X[3,3,0] X[3,3,1] X[3,3,2] X[3,3,3] X[3,3,4] X[3,4,0] X[3,4,1] X[3,4,2]
 X[3,4,3] X[3,4,4] X[3,5,0] X[3,5,1] X[3,5,2] X[3,5,3] X[3,5,4] X[3,6,0]
 X[3,6,1] X[3,6,2] X[3,6,3] X[3,6,4] X[4,0,0] X[4,0,1] X[4,0,2] X[4,0,3]
 X[4,0,4] X[4,1,0] X[4,1,1] X[4,1,2] X[4,1,3] X[4,1,4] X[4,2,0] X[4,2,1]
 X[4,2,2] X[4,2,3] X[4,2,4] X[4,3,0] X[4,3,1] X[4,3,2] X[4,3,3] X[4,3,4]
 X[4,4,0] X[4,4,1] X[4,4,2] X[4,4,3] X[4,4,4] X[4,5,0] X[4,5,1] X[4,5,2]
 X[4,5,3] X[4,5,4] X[4,6,0] X[4,6,1] X[4,6,2] X[4,6,3] X[4,6,4] X[5,0,0]
 X[5,0,1] X[5,0,2] X[5,0,3] X[5,0,4] X[5,1,0] X[5,1,1] X[5,1,2] X[5,1,3]
 X[5,1,4] X[5,2,0] X[5,2,1] X[5,2,2] X[5,2,3] X[5,2,4] X[5,3,0] X[5,3,1]
 X[5,3,2] X[5,3,3] X[5,3,4] X[5,4,0] X[5,4,1] X[5,4,2] X[5,4,3] X[5,4,4]
 X[5,5,0] X[5,5,1] X[5,5,2] X[5,5,3] X[5,5,4] X[5,6,0] X[5,6,1] X[5,6,2]
 X[5,6,3] X[5,6,4] X[6,0,0] X[6,0,1] X[6,0,2] X[6,0,3] X[6,0,4] X[6,1,0]
 X[6,1,1] X[6,1,2] X[6,1,3] X[6,1,4] X[6,2,0] X[6,2,1] X[6,2,2] X[6,2,3]
 X[6,2,4] X[6,3,0] X[6,3,1] X[6,3,2] X[6,3,3] X[6,3,4] X[6,4,0] X[6,4,1]
 X[6,4,2] X[6,4,3] X[6,4,4] X[6,5,0] X[6,5,1] X[6,5,2] X[6,5,3] X[6,5,4]
 X[6,6,0] X[6,6,1] X[6,6,2] X[6,6,3] X[6,6,4] Z[0,0] Z[0,1] Z[0,2] Z[0,3]
 Z[0,4] Z[1,0] Z[1,1] Z[1,2] Z[1,3] Z[1,4] Z[2,0] Z[2,1] Z[2,2] Z[2,3]
 Z[2,4] Z[3,0] Z[3,1] Z[3,2] Z[3,3] Z[3,4] Z[4,0] Z[4,1] Z[4,2] Z[4,3]
 Z[4,4] Z[5,0] Z[5,1] Z[5,2] Z[5,3] Z[5,4] Z[6,0] Z[6,1] Z[6,2] Z[6,3]
 Z[6,4]
End
